param set_len = 22;
param target_sum = 2360916;
param values := [0] 343343 [1] 38666 [2] 266235 [3] 133947 [4] 108133 [5] 108137 [6] 97036 [7] 347606 [8] 68415 [9] 435443 [10] 289149 [11] 131135 [12] 432233 [13] 76330 [14] 399846 [15] 44804 [16] 75472 [17] 495119 [18] 183079 [19] 169296 [20] 43396 [21] 167295 ;
